unsat
(:max-memory         18.04
 :memory             17.93
 :nlsat-conflicts    1
 :nlsat-propagations 4
 :nlsat-stages       1
 :num-allocs         5482
 :rlimit-count       1354
 :time               0.00)
